<instance format="XCSP3" type="CSP">
  <variables>
    <var id="x0"> 0 8 12 17 </var>
    <var id="x1"> 0 2 8 17 </var>
    <var id="x2"> 0 5 10 </var>
    <var id="x3"> 0 5 8 10 </var>
    <var id="x4"> 2 5 17 </var>
    <var id="x5"> 2 5 8 12 </var>
    <var id="x6"> 2 8 10 </var>
    <var id="x7"> 1 3 11 13 14 </var>
    <var id="x8"> 0 3 9 13 14 17 </var>
    <var id="x9"> 0 1 9 17 </var>
    <var id="x10"> 0 1 3 14 </var>
    <var id="x11"> 3 13 14 17 </var>
    <var id="x12"> 0 1 17 </var>
    <var id="x13"> 1 3 17 </var>
    <var id="x14"> 0 3 9 17 </var>
    <var id="x15"> 1 13 15 </var>
    <var id="x16"> 2 5 13 17 </var>
    <var id="x17"> 2 5 16 </var>
    <var id="x18"> 1 5 17 </var>
    <var id="x19"> 7 13 17 </var>
    <var id="x20"> 1 5 7 17 </var>
    <var id="x21"> 5 15 17 </var>
    <var id="x22"> 2 5 13 16 </var>
    <var id="x23"> 0 9 15 17 </var>
    <var id="x24"> 9 13 15 17 </var>
    <var id="x25"> 0 4 5 17 </var>
    <var id="x26"> 0 4 13 17 </var>
    <var id="x27"> 0 4 14 </var>
    <var id="x28"> 9 13 14 </var>
    <var id="x29"> 0 5 13 14 17 </var>
    <var id="x30"> 0 5 9 17 </var>
    <var id="x31"> 3 4 14 </var>
    <var id="x32"> 3 8 14 </var>
    <var id="x33"> 3..6 14 </var>
    <var id="x34"> 4 5 14 16 </var>
    <var id="x35"> 3 6 8 </var>
    <var id="x36"> 3 4 8 10 </var>
    <var id="x37"> 3 8 10 14 </var>
    <var id="x38"> 3 5 6 8 </var>
    <var id="x39"> 0 8 </var>
    <var id="x40"> 0 4 5 8 10 14 </var>
    <var id="x41"> 8 </var>
    <var id="x42"> 0 4 8 10 </var>
    <var id="x43"> 8 10 11 14 </var>
    <var id="x44"> 5 8 10 12 </var>
    <var id="x45"> 4 5 8 10 12 </var>
    <var id="x46"> 5 10 </var>
    <var id="x47"> 3 8 14 17 </var>
    <var id="x48"> 5 8 10 14 </var>
    <var id="x49"> 5 10 17 </var>
    <var id="x50"> 3 8 10 14 </var>
    <var id="x51"> 3 5 14 17 </var>
    <var id="x52"> 3 5 8 10 15 17 </var>
    <var id="x53"> 3 5 10 </var>
    <var id="x54"> 3 8 12 13 </var>
    <var id="x55"> 1 8 16 </var>
    <var id="x56"> 4 8 16 </var>
    <var id="x57"> 1 4 12 </var>
    <var id="x58"> 1 3 7 8 12 </var>
    <var id="x59"> 1 3 13 16 </var>
    <var id="x60"> 3 4 8 12 </var>
    <var id="x61"> 3 13 16 </var>
    <var id="x62"> 1 3 12..14 </var>
    <var id="x63"> 5 12..14 </var>
    <var id="x64"> 3 9 13 </var>
    <var id="x65"> 0 3 13 </var>
    <var id="x66"> 0 1 12 14 </var>
    <var id="x67"> 3 9 13 14 </var>
    <var id="x68"> 1 3 5 12 </var>
    <var id="x69"> 0 3 5 9 </var>
    <var id="x70"> 0 3..5 10 </var>
    <var id="x71"> 0 4 5 10 </var>
    <var id="x72"> 2 3 5 </var>
    <var id="x73"> 4 5 7 17 </var>
    <var id="x74"> 2 3 17 </var>
    <var id="x75"> 0 3 4 7 10 17 </var>
    <var id="x76"> 0 4 7 </var>
    <var id="x77"> 0 3 5 17 </var>
    <var id="x78"> 3 4 12 13 15 </var>
    <var id="x79"> 3 4 15 </var>
    <var id="x80"> 4 6 16 </var>
    <var id="x81"> 3 4 6 13 </var>
    <var id="x82"> 4 7 12 13 16 </var>
    <var id="x83"> 4 7 12 16 </var>
    <var id="x84"> 3 13 </var>
    <var id="x85"> 3 6 13 16 </var>
    <var id="x86"> 2..4 6 17 </var>
    <var id="x87"> 2 3 6 8 12 </var>
    <var id="x88"> 4 12 17 </var>
    <var id="x89"> 4 12 17 </var>
    <var id="x90"> 3 4 8 17 </var>
    <var id="x91"> 3 17 </var>
    <var id="x92"> 3 4 8 12 17 </var>
    <var id="x93"> 1 8 16 </var>
    <var id="x94"> 1 3 10 14 </var>
    <var id="x95"> 3 14 </var>
    <var id="x96"> 3 8 12 14 16 </var>
    <var id="x97"> 7 12 14 16 </var>
    <var id="x98"> 1 7 12 14 16 </var>
    <var id="x99"> 3 7 8 </var>
    <var id="x100"> 3 8 10 12 </var>
    <var id="x101"> 0 3 14 </var>
    <var id="x102"> 0 15 16 </var>
    <var id="x103"> 0 3..5 10 14 15 </var>
    <var id="x104"> 3 5 14 16 </var>
    <var id="x105"> 0 4 14 16 </var>
    <var id="x106"> 3 5 10 </var>
    <var id="x107"> 0 3 5 14 16 </var>
    <var id="x108"> 3..5 10 15 </var>
    <var id="x109"> 1 13 14 </var>
    <var id="x110"> 1 10 14 </var>
    <var id="x111"> 13 14 16 17 </var>
    <var id="x112"> 6 9 13 17 </var>
    <var id="x113"> 1 10 17 </var>
    <var id="x114"> 1 13 14 16 17 </var>
    <var id="x115"> 6 9 17 </var>
    <var id="x116"> 10 17 </var>
    <var id="x117"> 1 3 4 </var>
    <var id="x118"> 0 3 8 17 </var>
    <var id="x119"> 0 1 3..5 </var>
    <var id="x120"> 0 4..6 8 </var>
    <var id="x121"> 3..6 17 </var>
    <var id="x122"> 0 1 4 </var>
    <var id="x123"> 1 3 5 8 17 </var>
    <var id="x124"> 0 1 3 5 17 </var>
    <var id="x125"> 3 13 14 </var>
    <var id="x126"> 0 3 8 9 13 14 17 </var>
    <var id="x127"> 0 8 14 </var>
    <var id="x128"> 2 3 8 14 </var>
    <var id="x129"> 2 3 8 9 13 17 </var>
    <var id="x130"> 0 3 8 13 17 </var>
    <var id="x131"> 0 3 8 9 17 </var>
    <var id="x132"> 2 3 13 </var>
    <var id="x133"> 2 8 17 </var>
    <var id="x134"> 2 3 5 6 8 12 </var>
    <var id="x135"> 5 12 13 17 </var>
    <var id="x136"> 2 3 6 8 13 17 </var>
    <var id="x137"> 2 3 8 13 </var>
    <var id="x138"> 3 5 8 12 17 </var>
    <var id="x139"> 3 5 6 8 17 </var>
    <var id="x140"> 2 3 5 6 13 </var>
  </variables>
  <constraints>
    <group>
      <allDifferent> %... </allDifferent>
      <args> x0 x1 x2 x3 x4 x5 x6 </args>
      <args> x7 x8 x9 x10 x11 x12 x13 x14 </args>
      <args> x15 x16 x17 x18 x19 x20 x21 x22 </args>
      <args> x23 x24 x25 x26 x27 x28 x29 x30 </args>
      <args> x31 x32 x33 x34 x35 x36 x37 x38 </args>
      <args> x39 x40 x41 x42 x43 x44 x45 x46 </args>
      <args> x47 x48 x49 x50 x51 x52 x53 </args>
      <args> x54 x55 x56 x57 x58 x59 x60 x61 </args>
      <args> x62 x63 x64 x65 x66 x67 x68 x69 </args>
      <args> x70 x71 x72 x73 x74 x75 x76 x77 </args>
      <args> x78 x79 x80 x81 x82 x83 x84 x85 </args>
      <args> x86 x87 x88 x89 x90 x91 x92 </args>
      <args> x93 x94 x95 x96 x97 x98 x99 x100 </args>
      <args> x101 x102 x103 x104 x105 x106 x107 x108 </args>
      <args> x109 x110 x111 x112 x113 x114 x115 x116 </args>
      <args> x117 x118 x119 x120 x121 x122 x123 x124 </args>
      <args> x125 x126 x127 x128 x129 x130 x131 x132 </args>
      <args> x133 x134 x135 x136 x137 x138 x139 x140 </args>
      <args> x7 x15 x31 x62 x78 x109 x117 x125 </args>
      <args> x0 x8 x32 x47 x54 x101 x118 x126 </args>
      <args> x1 x9 x23 x39 x55 x93 x102 x133 </args>
      <args> x2 x10 x70 x79 x94 x103 x110 x119 </args>
      <args> x3 x40 x48 x56 x71 x80 x120 x127 </args>
      <args> x4 x11 x16 x33 x81 x86 x95 x121 </args>
      <args> x5 x17 x72 x87 x96 x104 x128 x134 </args>
      <args> x34 x63 x73 x82 x88 x97 x111 x135 </args>
      <args> x24 x35 x41 x64 x74 x112 x129 x136 </args>
      <args> x12 x18 x25 x49 x57 x89 x113 </args>
      <args> x19 x26 x36 x42 x65 x75 x90 x130 </args>
      <args> x27 x66 x76 x83 x98 x105 x122 </args>
      <args> x6 x28 x37 x43 x50 x67 x84 x137 </args>
      <args> x13 x20 x44 x58 x68 x106 x123 x138 </args>
      <args> x29 x51 x59 x77 x91 x107 x114 x124 </args>
      <args> x14 x30 x38 x69 x99 x115 x131 x139 </args>
      <args> x21 x45 x52 x60 x92 x100 x108 x116 </args>
      <args> x22 x46 x53 x61 x85 x132 x140 </args>
    </group>
  </constraints>
</instance>

